TCS_Benchmarks/redos_fix/regexlib1_output_distinct_4658_4657_0_0.smt2
(set-logic QF_S)
(declare-const x String)
(assert (str.in.re x (re.inter  (re.++  (re.union  (re.range "\u{30}" "\u{39}")  (re.++ (re.range "\u{30}" "\u{39}")   (re.range "\u{30}" "\u{39}")))  (re.union  (re.range "\u{30}" "\u{39}")  (re.++ (re.range "\u{30}" "\u{39}")   (re.range "\u{30}" "\u{39}"))))  (re.++  (re.union  (re.range "\u{30}" "\u{39}")  (re.++ (re.range "\u{30}" "\u{39}")   (re.range "\u{30}" "\u{39}"))) (re.++  (re.union (str.to_re "")  (re.++ (re.union (re.range "\u{09}" "\u{0d}") (re.range "\u{20}" "\u{20}") (re.range "\u{85}" "\u{85}") (re.range "\u{a0}" "\u{a0}"))  (str.to_re "")))  (re.union  (re.range "\u{30}" "\u{39}")  (re.++ (re.range "\u{30}" "\u{39}")   (re.range "\u{30}" "\u{39}"))))) )))
(check-sat)
(get-model)