TCS_Benchmarks/redos_fix/regexlib1_output_distinct_4658_4657_0_0.txt
([0-9]{1,2})([0-9]{1,2})
([0-9]{1,2})(\s{0,1})([0-9]{1,2})